mixintcount/benchmarks/random_v2l/4_4_19.in
16 6
#	x1	x2	x3	x4;		0 = Real; 1 = Integer
	1	1	1	1
1	7	9	-3	8	5
1	7	5	-1	4	7
1	3	-8	-8	-1	-5
1	-6	-10	-1	-2	-10
1	-7	-8	-10	-4	-1
1	-6	6	-1	-7	-1
1	-3	9	-5	4	-7
1	10	-2	-2	-2	13
1	1	0	0	0	19
1	-1	0	0	0	19
1	0	1	0	0	19
1	0	-1	0	0	19
1	0	0	1	0	19
1	0	0	-1	0	19
1	0	0	0	1	19
1	0	0	0	-1	19
